<number of tasks>
58

<cycle time>
71

<task times>
1 10
2 53
3 41
4 36
5 35
6 17
7 34
8 23
9 14
10 52
11 33
12 34
13 12
14 52
15 12
16 33
17 44
18 7
19 15
20 13
21 29
22 37
23 43
24 23
25 24
26 9
27 16
28 12
29 26
30 22
31 51
32 47
33 34
34 23
35 12
36 52
37 12
38 33
39 44
40 7
41 15
42 13
43 29
44 37
45 43
46 23
47 24
48 9
49 16
50 12
51 26
52 12
53 52
54 12
55 33
56 44
57 7
58 15

<precedence relations>
1,9
2,25
3,21
3,22
4,10
5,36
6,23
6,24
7,43
8,44
9,11
11,13
11,14
11,15
12,17
13,17
14,17
15,17
16,18
17,20
18,19
19,23
20,21
20,25
21,26
21,44
22,27
23,31
24,31
25,38
26,29
27,30
28,32
28,33
29,31
30,34
31,36
32,45
33,35
34,36
35,43
36,37
36,38
37,39
37,40
37,41
38,52
39,43
40,43
41,42
42,43
43,45
44,45
45,46
45,48
45,49
46,47
46,50
47,51
48,55
49,58
50,58
51,52
52,53
53,54
54,55
54,56
55,57
56,57
57,58

<setup times forward>
1,2:8
1,3:7
1,4:3
1,5:3
1,6:8
1,7:9
1,8:10
1,9:3
1,10:3
1,12:3
1,16:2
1,18:4
1,19:3
1,22:5
1,23:9
1,24:3
1,27:9
1,30:1
1,33:5
1,34:1
1,35:2
2,1:8
2,3:15
2,4:5
2,5:5
2,7:17
2,8:18
2,9:11
2,10:11
2,11:6
2,12:11
2,13:8
2,14:12
2,15:12
2,16:6
2,17:8
2,18:12
2,19:11
2,20:8
2,21:15
2,22:3
2,23:17
2,24:11
2,25:6
2,26:17
2,27:17
2,28:8
2,29:9
2,30:9
2,31:6
2,32:8
2,33:3
2,34:9
2,35:6
2,36:2
2,37:2
2,39:18
2,44:17
2,45:10
2,46:6
2,47:6
2,48:15
2,49:3
2,50:15
2,51:2
3,1:7
3,2:15
3,4:10
3,5:10
3,6:15
3,7:2
3,8:3
3,9:4
3,10:4
3,11:9
3,12:4
3,13:7
3,14:3
3,15:3
3,16:9
3,17:7
3,18:3
3,19:4
3,20:7
3,22:12
3,23:2
3,24:4
3,25:9
3,28:7
3,32:7
3,33:12
3,35:9
4,1:3
4,2:5
4,3:10
4,6:5
4,7:12
4,8:13
4,9:6
4,10:6
4,11:1
4,12:6
4,13:3
4,14:7
4,15:7
4,16:1
4,17:3
4,18:7
4,19:6
4,20:3
4,21:10
4,22:2
4,23:12
4,24:6
4,25:1
4,26:12
4,27:12
4,28:3
4,29:4
4,30:4
4,31:1
4,32:3
4,33:2
4,34:4
4,35:1
4,36:3
4,37:3
4,38:3
4,39:13
4,40:5
4,41:5
4,42:5
4,43:5
4,44:12
4,45:5
4,46:1
4,47:1
4,48:10
4,49:2
4,50:10
4,51:3
4,52:3
4,53:2
4,54:10
4,55:10
4,56:2
4,57:2
4,58:2
5,1:3
5,2:5
5,3:10
5,6:5
5,7:12
5,8:13
5,9:6
5,10:6
5,11:1
5,12:6
5,13:3
5,14:7
5,15:7
5,16:1
5,17:3
5,18:7
5,19:6
5,20:3
5,21:10
5,22:2
5,23:12
5,24:6
5,25:1
5,26:12
5,27:12
5,28:3
5,29:4
5,30:4
5,31:1
5,32:3
5,33:2
5,34:4
5,35:1
5,36:3
5,44:12
6,1:8
6,3:15
6,4:5
6,5:5
6,7:17
6,8:18
6,9:11
6,10:11
6,11:6
6,12:11
6,13:8
6,14:12
6,15:12
6,16:6
6,17:8
6,18:12
6,19:11
6,20:8
6,21:15
6,22:3
6,23:17
6,24:11
6,25:6
6,26:17
6,27:17
6,28:8
6,29:9
6,30:9
6,32:8
6,33:3
6,34:9
6,35:6
6,44:17
7,1:9
7,2:17
7,3:2
7,4:12
7,5:12
7,6:17
7,8:1
7,9:6
7,10:6
7,11:11
7,12:6
7,13:9
7,14:5
7,15:5
7,16:11
7,17:9
7,18:5
7,19:6
7,20:9
7,21:2
7,22:14
7,24:6
7,25:11
7,28:9
7,29:8
7,30:8
7,31:11
7,32:9
7,33:14
7,34:8
7,35:11
7,36:15
7,37:15
7,38:15
7,39:1
7,40:17
7,41:17
7,42:17
7,43:17
8,1:10
8,2:18
8,3:3
8,4:13
8,5:13
8,6:18
8,7:1
8,9:7
8,10:7
8,11:12
8,12:7
8,13:10
8,14:6
8,15:6
8,16:12
8,17:10
8,18:6
8,19:7
8,20:10
8,21:3
8,22:15
8,23:1
8,24:7
8,25:12
8,26:1
8,27:1
8,28:10
8,29:9
8,30:9
8,31:12
8,32:10
8,33:15
8,34:9
8,35:12
8,36:16
8,37:16
8,38:16
8,40:18
8,41:18
8,42:18
8,43:18
8,44:1
9,2:11
9,3:4
9,4:6
9,5:6
9,6:11
9,7:6
9,8:7
9,11:5
9,16:5
9,18:1
9,22:8
9,23:6
9,27:6
9,28:3
9,30:2
9,32:3
9,33:8
9,34:2
9,35:5
10,1:3
10,2:11
10,3:4
10,5:6
10,6:11
10,7:6
10,8:7
10,11:5
10,13:3
10,14:1
10,15:1
10,16:5
10,17:3
10,18:1
10,20:3
10,21:4
10,22:8
10,23:6
10,25:5
10,26:6
10,27:6
10,28:3
10,29:2
10,30:2
10,31:5
10,32:3
10,33:8
10,34:2
10,35:5
10,36:9
10,37:9
10,38:9
10,39:7
10,40:11
10,41:11
10,42:11
10,43:11
10,44:6
10,45:1
10,46:5
10,47:5
10,48:4
10,49:8
10,50:4
10,51:9
10,52:9
10,53:8
10,54:4
10,55:4
10,56:8
10,57:8
10,58:8
11,2:6
11,3:9
11,4:1
11,5:1
11,6:6
11,7:11
11,8:12
11,10:5
11,12:5
11,13:2
11,14:6
11,15:6
11,18:6
11,19:5
11,22:3
11,23:11
11,24:5
11,27:11
11,28:2
11,30:3
11,32:2
11,33:3
11,34:3
12,1:3
12,2:11
12,3:4
12,4:6
12,5:6
12,6:11
12,7:6
12,8:7
12,11:5
12,13:3
12,14:1
12,15:1
12,16:5
12,17:3
12,18:1
12,22:8
12,23:6
12,27:6
12,28:3
12,30:2
12,32:3
12,33:8
12,34:2
12,35:5
13,2:8
13,3:7
13,4:3
13,5:3
13,6:8
13,7:9
13,8:10
13,10:3
13,12:3
13,14:4
13,15:4
13,16:2
13,18:4
13,19:3
13,22:5
13,23:9
13,24:3
13,27:9
13,30:1
13,33:5
13,34:1
13,35:2
14,2:12
14,3:3
14,4:7
14,5:7
14,6:12
14,7:5
14,8:6
14,10:1
14,12:1
14,13:4
14,16:6
14,17:4
14,19:1
14,22:9
14,23:5
14,24:1
14,27:5
14,28:4
14,30:3
14,32:4
14,33:9
14,34:3
14,35:6
15,2:12
15,3:3
15,4:7
15,5:7
15,6:12
15,7:5
15,8:6
15,10:1
15,12:1
15,13:4
15,16:6
15,17:4
15,19:1
15,22:9
15,23:5
15,24:1
15,27:5
15,28:4
15,30:3
15,32:4
15,33:9
15,34:3
15,35:6
16,1:2
16,2:6
16,3:9
16,4:1
16,5:1
16,6:6
16,7:11
16,8:12
16,9:5
16,10:5
16,12:5
16,13:2
16,14:6
16,15:6
16,17:2
16,18:6
16,20:2
16,21:9
16,22:3
16,24:5
16,26:11
16,27:11
16,28:2
16,29:3
16,30:3
16,32:2
16,33:3
16,34:3
16,44:11
17,2:8
17,3:7
17,4:3
17,5:3
17,6:8
17,7:9
17,8:10
17,10:3
17,16:2
17,18:4
17,19:3
17,22:5
17,23:9
17,24:3
17,27:9
17,30:1
17,33:5
17,34:1
17,35:2
18,1:4
18,2:12
18,3:3
18,4:7
18,5:7
18,6:12
18,7:5
18,8:6
18,9:1
18,10:1
18,11:6
18,12:1
18,13:4
18,17:4
18,19:1
18,20:4
18,21:3
18,22:9
18,24:1
18,25:6
18,26:5
18,27:5
18,28:4
18,29:3
18,30:3
18,32:4
18,33:9
18,34:3
18,35:6
18,44:5
19,1:3
19,2:11
19,3:4
19,4:6
19,5:6
19,6:11
19,7:6
19,8:7
19,11:5
19,13:3
19,14:1
19,15:1
19,17:3
19,20:3
19,21:4
19,22:8
19,23:6
19,25:5
19,26:6
19,27:6
19,28:3
19,29:2
19,30:2
19,32:3
19,33:8
19,34:2
19,35:5
19,44:6
20,2:8
20,3:7
20,4:3
20,5:3
20,6:8
20,7:9
20,8:10
20,10:3
20,16:2
20,18:4
20,19:3
20,21:7
20,22:5
20,23:9
20,24:3
20,25:2
20,27:9
20,30:1
20,33:5
20,34:1
20,35:2
21,2:15
21,4:10
21,5:10
21,6:15
21,7:2
21,8:3
21,10:4
21,16:9
21,18:3
21,19:4
21,22:12
21,23:2
21,24:4
21,25:9
21,26:2
21,27:2
21,28:7
21,30:6
21,32:7
21,33:12
21,34:6
21,35:9
21,44:2
22,1:5
22,2:3
22,4:2
22,5:2
22,6:3
22,7:14
22,8:15
22,9:8
22,10:8
22,11:3
22,12:8
22,13:5
22,14:9
22,15:9
22,16:3
22,17:5
22,18:9
22,19:8
22,20:5
22,21:12
22,23:14
22,24:8
22,25:3
22,26:14
22,27:14
22,28:5
22,29:6
22,31:3
22,32:5
22,35:3
22,44:14
23,1:9
23,2:17
23,3:2
23,4:12
23,5:12
23,8:1
23,9:6
23,10:6
23,11:11
23,12:6
23,13:9
23,14:5
23,15:5
23,17:9
23,20:9
23,21:2
23,22:14
23,24:6
23,25:11
23,28:9
23,29:8
23,30:8
23,31:11
23,32:9
23,33:14
23,34:8
23,35:11
24,1:3
24,2:11
24,3:4
24,4:6
24,5:6
24,7:6
24,8:7
24,11:5
24,13:3
24,14:1
24,15:1
24,16:5
24,17:3
24,18:1
24,20:3
24,21:4
24,22:8
24,23:6
24,25:5
24,26:6
24,27:6
24,28:3
24,29:2
24,30:2
24,31:5
24,32:3
24,33:8
24,34:2
24,35:5
24,44:6
25,3:9
25,4:1
25,5:1
25,6:6
25,7:11
25,8:12
25,10:5
25,18:6
25,19:5
25,21:9
25,22:3
25,23:11
25,24:5
25,26:11
25,27:11
25,28:2
25,29:3
25,30:3
25,32:2
25,33:3
25,34:3
25,36:4
25,37:4
25,38:4
25,39:12
25,40:6
25,41:6
25,42:6
25,43:6
25,44:11
25,45:4
25,48:9
25,49:3
25,50:9
25,51:4
26,2:17
26,4:12
26,5:12
26,6:17
26,8:1
26,10:6
26,16:11
26,18:5
26,19:6
26,22:14
26,24:6
26,25:11
26,28:9
26,29:8
26,30:8
26,32:9
26,33:14
26,34:8
26,35:11
27,1:9
27,2:17
27,4:12
27,5:12
27,6:17
27,8:1
27,9:6
27,10:6
27,11:11
27,12:6
27,13:9
27,14:5
27,15:5
27,16:11
27,17:9
27,18:5
27,19:6
27,20:9
27,21:2
27,24:6
27,25:11
27,28:9
27,29:8
27,30:8
27,31:11
27,32:9
27,33:14
27,35:11
28,2:8
28,3:7
28,4:3
28,5:3
28,6:8
28,7:9
28,8:10
28,9:3
28,10:3
28,11:2
28,12:3
28,14:4
28,15:4
28,16:2
28,18:4
28,19:3
28,21:7
28,22:5
28,23:9
28,24:3
28,25:2
28,26:9
28,27:9
28,29:1
28,30:1
28,31:2
28,33:5
28,34:1
28,36:6
28,37:6
28,38:6
28,39:10
28,40:8
28,41:8
28,42:8
28,44:9
29,2:9
29,4:4
29,5:4
29,6:9
29,7:8
29,8:9
29,10:2
29,16:3
29,18:3
29,19:2
29,22:6
29,23:8
29,24:2
29,25:3
29,27:8
29,28:1
29,31:3
29,32:1
29,33:6
29,35:3
29,44:8
30,1:1
30,2:9
30,4:4
30,5:4
30,6:9
30,7:8
30,8:9
30,9:2
30,10:2
30,11:3
30,12:2
30,13:1
30,14:3
30,15:3
30,16:3
30,17:1
30,18:3
30,19:2
30,20:1
30,21:6
30,23:8
30,24:2
30,25:3
30,26:8
30,28:1
30,31:3
30,32:1
30,33:6
30,35:3
30,44:8
31,2:6
31,4:1
31,5:1
31,7:11
31,8:12
31,10:5
31,22:3
31,27:11
31,28:2
31,30:3
31,32:2
31,33:3
31,34:3
31,36:4
31,44:11
32,2:8
32,3:7
32,4:3
32,5:3
32,6:8
32,7:9
32,8:10
32,9:3
32,10:3
32,11:2
32,12:3
32,14:4
32,15:4
32,16:2
32,18:4
32,19:3
32,21:7
32,22:5
32,23:9
32,24:3
32,25:2
32,26:9
32,27:9
32,29:1
32,30:1
32,31:2
32,33:5
32,34:1
32,35:2
32,36:6
32,37:6
32,38:6
32,39:10
32,40:8
32,41:8
32,42:8
32,43:8
32,44:9
32,45:2
33,1:5
33,2:3
33,3:12
33,4:2
33,5:2
33,6:3
33,7:14
33,8:15
33,9:8
33,10:8
33,11:3
33,12:8
33,13:5
33,14:9
33,15:9
33,16:3
33,17:5
33,18:9
33,19:8
33,20:5
33,21:12
33,23:14
33,24:8
33,25:3
33,26:14
33,27:14
33,29:6
33,30:6
33,31:3
33,32:5
33,34:6
33,35:3
33,36:1
33,37:1
33,38:1
33,39:15
33,40:3
33,41:3
33,42:3
33,44:14
34,1:1
34,2:9
34,4:4
34,5:4
34,6:9
34,7:8
34,8:9
34,9:2
34,10:2
34,11:3
34,12:2
34,13:1
34,14:3
34,15:3
34,16:3
34,17:1
34,18:3
34,19:2
34,20:1
34,21:6
34,23:8
34,24:2
34,25:3
34,26:8
34,28:1
34,31:3
34,32:1
34,33:6
34,35:3
34,36:7
34,44:8
35,1:2
35,2:6
35,3:9
35,4:1
35,5:1
35,6:6
35,7:11
35,8:12
35,9:5
35,10:5
35,12:5
35,13:2
35,14:6
35,15:6
35,17:2
35,18:6
35,19:5
35,20:2
35,21:9
35,22:3
35,23:11
35,24:5
35,26:11
35,27:11
35,29:3
35,30:3
35,32:2
35,34:3
35,36:4
35,37:4
35,38:4
35,39:12
35,40:6
35,41:6
35,42:6
35,43:6
35,44:11
36,2:2
36,4:3
36,7:15
36,8:16
36,10:9
36,25:4
36,28:6
36,32:6
36,33:1
36,35:4
36,44:15
37,2:2
37,4:3
37,7:15
37,8:16
37,10:9
37,25:4
37,28:6
37,32:6
37,33:1
37,35:4
37,39:16
37,40:2
37,41:2
37,44:15
38,4:3
38,7:15
38,8:16
38,10:9
38,28:6
38,32:6
38,33:1
38,35:4
38,39:16
38,40:2
38,41:2
38,42:2
38,43:2
38,44:15
38,45:8
38,46:4
38,47:4
38,48:13
38,49:1
38,50:13
39,2:18
39,4:13
39,7:1
39,10:7
39,25:12
39,28:10
39,32:10
39,33:15
39,35:12
39,38:16
39,40:18
39,41:18
39,42:18
39,43:18
39,44:1
40,4:5
40,7:17
40,8:18
40,10:11
40,25:6
40,28:8
40,32:8
40,33:3
40,35:6
40,38:2
40,39:18
40,44:17
41,4:5
41,7:17
41,8:18
41,10:11
41,25:6
41,28:8
41,32:8
41,33:3
41,35:6
41,38:2
41,39:18
41,44:17
42,4:5
42,7:17
42,8:18
42,10:11
42,25:6
42,28:8
42,32:8
42,33:3
42,35:6
42,38:2
42,39:18
42,44:17
43,4:5
43,8:18
43,10:11
43,25:6
43,32:8
43,38:2
43,44:17
43,45:10
44,2:17
44,4:12
44,5:12
44,6:17
44,10:6
44,16:11
44,18:5
44,19:6
44,22:14
44,24:6
44,25:11
44,28:9
44,29:8
44,30:8
44,31:11
44,32:9
44,33:14
44,34:8
44,35:11
44,36:15
44,37:15
44,38:15
44,39:1
44,40:17
44,41:17
44,42:17
44,43:17
44,45:7
45,2:10
45,4:5
45,10:1
45,25:4
45,38:8
45,46:4
45,48:5
45,49:7
46,2:6
46,4:1
46,10:5
46,38:4
46,48:9
46,49:3
46,50:9
47,2:6
47,4:1
47,10:5
47,38:4
47,48:9
47,49:3
47,50:9
47,51:4
48,2:15
48,4:10
48,10:4
48,25:9
48,38:13
48,46:9
48,47:9
48,49:12
48,51:13
48,52:13
48,53:12
48,56:12
49,2:3
49,4:2
49,10:8
49,25:3
49,38:1
49,46:3
49,47:3
49,48:12
49,50:12
49,51:1
49,52:1
49,54:12
49,55:12
50,2:15
50,4:10
50,10:4
50,25:9
50,38:13
50,47:9
50,49:12
50,51:13
50,52:13
50,53:12
50,56:12
50,57:12
50,58:12
51,2:2
51,4:3
51,10:9
51,25:4
51,48:13
51,49:1
51,50:13
52,4:3
52,10:9
52,48:13
52,49:1
52,50:13
52,53:1
53,4:2
53,10:8
53,48:12
53,50:12
53,54:12
54,4:10
54,10:4
54,49:12
54,56:12
55,4:10
55,10:4
55,49:12
55,56:12
55,57:12
56,4:2
56,10:8
56,48:12
56,50:12
56,55:12
57,4:2
57,10:8
57,50:12
58,4:2
58,10:8

<setup times backward>
1,3:7
1,7:9
1,8:10
1,10:3
1,12:3
1,18:4
1,19:3
1,23:9
1,24:3
1,27:9
1,30:1
1,34:1
2,1:8
2,3:15
2,4:5
2,5:5
2,7:17
2,8:18
2,9:11
2,10:11
2,11:6
2,12:11
2,13:8
2,14:12
2,15:12
2,16:6
2,17:8
2,18:12
2,19:11
2,20:8
2,21:15
2,22:3
2,23:17
2,24:11
2,26:17
2,27:17
2,28:8
2,29:9
2,30:9
2,31:6
2,32:8
2,33:3
2,34:9
2,35:6
2,36:2
2,37:2
2,39:18
2,44:17
2,45:10
2,46:6
2,47:6
2,48:15
2,49:3
2,50:15
2,51:2
3,7:2
3,8:3
3,23:2
4,1:3
4,3:10
4,7:12
4,8:13
4,9:6
4,11:1
4,12:6
4,13:3
4,14:7
4,15:7
4,16:1
4,17:3
4,18:7
4,19:6
4,20:3
4,21:10
4,23:12
4,24:6
4,25:1
4,26:12
4,27:12
4,28:3
4,29:4
4,30:4
4,31:1
4,32:3
4,34:4
4,35:1
4,39:13
4,44:12
4,45:5
4,46:1
4,47:1
4,48:10
4,50:10
4,54:10
4,55:10
5,1:3
5,3:10
5,7:12
5,8:13
5,9:6
5,10:6
5,11:1
5,12:6
5,13:3
5,14:7
5,15:7
5,16:1
5,17:3
5,18:7
5,19:6
5,20:3
5,21:10
5,23:12
5,24:6
5,25:1
5,26:12
5,27:12
5,28:3
5,29:4
5,30:4
5,31:1
5,32:3
5,34:4
5,35:1
5,44:12
6,1:8
6,3:15
6,4:5
6,5:5
6,7:17
6,8:18
6,9:11
6,10:11
6,11:6
6,12:11
6,13:8
6,14:12
6,15:12
6,16:6
6,17:8
6,18:12
6,19:11
6,20:8
6,21:15
6,22:3
6,25:6
6,26:17
6,27:17
6,28:8
6,29:9
6,30:9
6,32:8
6,33:3
6,34:9
6,35:6
6,44:17
7,8:1
7,39:1
9,3:4
9,7:6
9,8:7
9,18:1
9,23:6
9,27:6
10,3:4
10,7:6
10,8:7
10,14:1
10,15:1
10,18:1
10,21:4
10,23:6
10,26:6
10,27:6
10,39:7
10,44:6
10,48:4
10,50:4
10,54:4
10,55:4
11,1:2
11,3:9
11,7:11
11,8:12
11,9:5
11,10:5
11,12:5
11,18:6
11,19:5
11,23:11
11,24:5
11,27:11
11,28:2
11,30:3
11,32:2
11,34:3
12,3:4
12,7:6
12,8:7
12,14:1
12,15:1
12,18:1
12,23:6
12,27:6
13,3:7
13,7:9
13,8:10
13,9:3
13,10:3
13,12:3
13,14:4
13,15:4
13,18:4
13,19:3
13,23:9
13,24:3
13,27:9
13,30:1
13,34:1
14,3:3
14,7:5
14,8:6
14,23:5
14,27:5
15,3:3
15,7:5
15,8:6
15,23:5
15,27:5
16,1:2
16,3:9
16,7:11
16,8:12
16,9:5
16,10:5
16,12:5
16,13:2
16,14:6
16,15:6
16,17:2
16,20:2
16,21:9
16,24:5
16,26:11
16,27:11
16,28:2
16,29:3
16,30:3
16,32:2
16,34:3
16,44:11
17,3:7
17,7:9
17,8:10
17,9:3
17,10:3
17,12:3
17,14:4
17,15:4
17,18:4
17,19:3
17,23:9
17,24:3
17,27:9
17,30:1
17,34:1
18,3:3
18,7:5
18,8:6
18,21:3
18,26:5
18,27:5
18,44:5
19,3:4
19,7:6
19,8:7
19,14:1
19,15:1
19,18:1
19,21:4
19,26:6
19,27:6
19,44:6
20,3:7
20,7:9
20,8:10
20,9:3
20,10:3
20,12:3
20,14:4
20,15:4
20,18:4
20,19:3
20,23:9
20,24:3
20,27:9
20,30:1
20,34:1
21,7:2
21,8:3
21,23:2
21,27:2
22,1:5
22,3:12
22,4:2
22,5:2
22,7:14
22,8:15
22,9:8
22,10:8
22,11:3
22,12:8
22,13:5
22,14:9
22,15:9
22,16:3
22,17:5
22,18:9
22,19:8
22,20:5
22,21:12
22,23:14
22,24:8
22,25:3
22,26:14
22,28:5
22,29:6
22,31:3
22,32:5
22,35:3
22,44:14
23,8:1
24,3:4
24,7:6
24,8:7
24,14:1
24,15:1
24,18:1
24,21:4
24,23:6
24,26:6
24,27:6
24,44:6
25,1:2
25,3:9
25,7:11
25,8:12
25,9:5
25,10:5
25,12:5
25,13:2
25,14:6
25,15:6
25,17:2
25,18:6
25,19:5
25,20:2
25,21:9
25,23:11
25,24:5
25,26:11
25,27:11
25,28:2
25,29:3
25,30:3
25,32:2
25,34:3
25,39:12
25,44:11
25,45:4
25,48:9
25,50:9
26,8:1
27,8:1
28,3:7
28,7:9
28,8:10
28,9:3
28,10:3
28,12:3
28,14:4
28,15:4
28,18:4
28,19:3
28,21:7
28,23:9
28,24:3
28,26:9
28,27:9
28,29:1
28,30:1
28,34:1
28,39:10
28,44:9
29,3:6
29,7:8
29,8:9
29,9:2
29,10:2
29,12:2
29,14:3
29,15:3
29,18:3
29,19:2
29,21:6
29,23:8
29,24:2
29,26:8
29,27:8
29,44:8
30,3:6
30,7:8
30,8:9
30,9:2
30,10:2
30,12:2
30,14:3
30,15:3
30,18:3
30,19:2
30,21:6
30,23:8
30,24:2
30,26:8
30,27:8
30,44:8
31,1:2
31,3:9
31,7:11
31,8:12
31,9:5
31,10:5
31,12:5
31,13:2
31,14:6
31,15:6
31,17:2
31,18:6
31,19:5
31,20:2
31,21:9
31,23:11
31,24:5
31,26:11
31,27:11
31,28:2
31,29:3
31,30:3
31,32:2
31,34:3
31,44:11
32,3:7
32,7:9
32,8:10
32,9:3
32,10:3
32,12:3
32,14:4
32,15:4
32,18:4
32,19:3
32,21:7
32,23:9
32,24:3
32,26:9
32,27:9
32,29:1
32,30:1
32,34:1
32,39:10
32,44:9
33,1:5
33,3:12
33,4:2
33,5:2
33,7:14
33,8:15
33,9:8
33,10:8
33,11:3
33,12:8
33,13:5
33,14:9
33,15:9
33,16:3
33,17:5
33,18:9
33,19:8
33,20:5
33,21:12
33,23:14
33,24:8
33,25:3
33,26:14
33,27:14
33,28:5
33,29:6
33,30:6
33,31:3
33,32:5
33,34:6
33,39:15
33,44:14
34,3:6
34,7:8
34,8:9
34,9:2
34,10:2
34,12:2
34,14:3
34,15:3
34,18:3
34,19:2
34,21:6
34,23:8
34,24:2
34,26:8
34,27:8
34,44:8
35,1:2
35,3:9
35,7:11
35,8:12
35,9:5
35,10:5
35,12:5
35,13:2
35,14:6
35,15:6
35,17:2
35,18:6
35,19:5
35,20:2
35,21:9
35,23:11
35,24:5
35,26:11
35,27:11
35,28:2
35,29:3
35,30:3
35,32:2
35,34:3
35,39:12
35,44:11
36,1:6
36,3:13
36,4:3
36,5:3
36,7:15
36,8:16
36,9:9
36,10:9
36,11:4
36,12:9
36,13:6
36,14:10
36,15:10
36,16:4
36,17:6
36,18:10
36,19:9
36,20:6
36,21:13
36,22:1
36,23:15
36,24:9
36,25:4
36,26:15
36,27:15
36,28:6
36,29:7
36,30:7
36,31:4
36,32:6
36,33:1
36,34:7
36,35:4
36,44:15
37,1:6
37,3:13
37,4:3
37,5:3
37,7:15
37,8:16
37,9:9
37,10:9
37,11:4
37,12:9
37,13:6
37,14:10
37,15:10
37,16:4
37,17:6
37,18:10
37,19:9
37,20:6
37,21:13
37,22:1
37,23:15
37,24:9
37,25:4
37,26:15
37,27:15
37,28:6
37,29:7
37,30:7
37,31:4
37,32:6
37,33:1
37,34:7
37,35:4
37,44:15
38,1:6
38,3:13
38,4:3
38,5:3
38,7:15
38,8:16
38,9:9
38,10:9
38,11:4
38,12:9
38,13:6
38,14:10
38,15:10
38,16:4
38,17:6
38,18:10
38,19:9
38,20:6
38,21:13
38,22:1
38,23:15
38,24:9
38,25:4
38,26:15
38,27:15
38,28:6
38,29:7
38,30:7
38,31:4
38,32:6
38,33:1
38,34:7
38,35:4
38,39:16
38,44:15
38,45:8
38,46:4
38,47:4
38,48:13
38,49:1
38,50:13
40,1:8
40,3:15
40,4:5
40,5:5
40,7:17
40,8:18
40,9:11
40,10:11
40,11:6
40,12:11
40,13:8
40,14:12
40,15:12
40,16:6
40,17:8
40,18:12
40,19:11
40,20:8
40,21:15
40,22:3
40,23:17
40,24:11
40,25:6
40,26:17
40,27:17
40,28:8
40,29:9
40,30:9
40,31:6
40,32:8
40,33:3
40,34:9
40,35:6
40,36:2
40,37:2
40,38:2
40,39:18
40,44:17
41,1:8
41,3:15
41,4:5
41,5:5
41,7:17
41,8:18
41,9:11
41,10:11
41,11:6
41,12:11
41,13:8
41,14:12
41,15:12
41,16:6
41,17:8
41,18:12
41,19:11
41,20:8
41,21:15
41,22:3
41,23:17
41,24:11
41,25:6
41,26:17
41,27:17
41,28:8
41,29:9
41,30:9
41,31:6
41,32:8
41,33:3
41,34:9
41,35:6
41,36:2
41,37:2
41,38:2
41,39:18
41,44:17
42,1:8
42,3:15
42,4:5
42,5:5
42,7:17
42,8:18
42,9:11
42,10:11
42,11:6
42,12:11
42,13:8
42,14:12
42,15:12
42,16:6
42,17:8
42,18:12
42,19:11
42,20:8
42,21:15
42,22:3
42,23:17
42,24:11
42,25:6
42,26:17
42,27:17
42,28:8
42,29:9
42,30:9
42,31:6
42,32:8
42,33:3
42,34:9
42,35:6
42,36:2
42,37:2
42,38:2
42,39:18
42,44:17
43,1:8
43,3:15
43,4:5
43,5:5
43,7:17
43,8:18
43,9:11
43,10:11
43,11:6
43,12:11
43,13:8
43,14:12
43,15:12
43,16:6
43,17:8
43,18:12
43,19:11
43,20:8
43,21:15
43,22:3
43,23:17
43,24:11
43,25:6
43,26:17
43,27:17
43,28:8
43,29:9
43,30:9
43,31:6
43,32:8
43,33:3
43,34:9
43,35:6
43,36:2
43,37:2
43,38:2
43,39:18
43,44:17
44,8:1
44,39:1
45,3:5
45,7:7
45,8:8
45,9:1
45,10:1
45,12:1
45,14:2
45,15:2
45,18:2
45,19:1
45,21:5
45,23:7
45,24:1
45,26:7
45,27:7
45,39:8
45,44:7
46,1:2
46,3:9
46,7:11
46,8:12
46,9:5
46,10:5
46,12:5
46,13:2
46,14:6
46,15:6
46,17:2
46,18:6
46,19:5
46,20:2
46,21:9
46,23:11
46,24:5
46,26:11
46,27:11
46,28:2
46,29:3
46,30:3
46,32:2
46,34:3
46,39:12
46,44:11
46,45:4
46,48:9
47,1:2
47,3:9
47,7:11
47,8:12
47,9:5
47,10:5
47,12:5
47,13:2
47,14:6
47,15:6
47,17:2
47,18:6
47,19:5
47,20:2
47,21:9
47,23:11
47,24:5
47,26:11
47,27:11
47,28:2
47,29:3
47,30:3
47,32:2
47,34:3
47,39:12
47,44:11
47,45:4
47,48:9
47,50:9
48,7:2
48,8:3
48,23:2
48,26:2
48,27:2
48,39:3
48,44:2
49,1:5
49,3:12
49,4:2
49,5:2
49,7:14
49,8:15
49,9:8
49,10:8
49,11:3
49,12:8
49,13:5
49,14:9
49,15:9
49,16:3
49,17:5
49,18:9
49,19:8
49,20:5
49,21:12
49,23:14
49,24:8
49,25:3
49,26:14
49,27:14
49,28:5
49,29:6
49,30:6
49,31:3
49,32:5
49,34:6
49,35:3
49,39:15
49,44:14
49,45:7
49,46:3
49,47:3
49,48:12
49,50:12
49,54:12
49,55:12
50,7:2
50,8:3
50,23:2
50,26:2
50,27:2
50,39:3
50,44:2
51,1:6
51,3:13
51,4:3
51,5:3
51,7:15
51,8:16
51,9:9
51,10:9
51,11:4
51,12:9
51,13:6
51,14:10
51,15:10
51,16:4
51,17:6
51,18:10
51,19:9
51,20:6
51,21:13
51,22:1
51,23:15
51,24:9
51,25:4
51,26:15
51,27:15
51,28:6
51,29:7
51,30:7
51,31:4
51,32:6
51,33:1
51,34:7
51,35:4
51,39:16
51,44:15
51,45:8
51,46:4
51,47:4
51,48:13
51,49:1
51,50:13
52,1:6
52,3:13
52,4:3
52,5:3
52,7:15
52,8:16
52,9:9
52,10:9
52,11:4
52,12:9
52,13:6
52,14:10
52,15:10
52,16:4
52,17:6
52,18:10
52,19:9
52,20:6
52,21:13
52,22:1
52,23:15
52,24:9
52,25:4
52,26:15
52,27:15
52,28:6
52,29:7
52,30:7
52,31:4
52,32:6
52,33:1
52,34:7
52,35:4
52,39:16
52,44:15
52,45:8
52,46:4
52,47:4
52,48:13
52,49:1
52,50:13
53,1:5
53,3:12
53,4:2
53,5:2
53,7:14
53,8:15
53,9:8
53,10:8
53,11:3
53,12:8
53,13:5
53,14:9
53,15:9
53,16:3
53,17:5
53,18:9
53,19:8
53,20:5
53,21:12
53,23:14
53,24:8
53,25:3
53,26:14
53,27:14
53,28:5
53,29:6
53,30:6
53,31:3
53,32:5
53,34:6
53,35:3
53,39:15
53,44:14
53,45:7
53,46:3
53,47:3
53,48:12
53,50:12
54,7:2
54,8:3
54,23:2
54,26:2
54,27:2
54,39:3
54,44:2
55,7:2
55,8:3
55,23:2
55,26:2
55,27:2
55,39:3
55,44:2
56,1:5
56,3:12
56,4:2
56,5:2
56,7:14
56,8:15
56,9:8
56,10:8
56,11:3
56,12:8
56,13:5
56,14:9
56,15:9
56,16:3
56,17:5
56,18:9
56,19:8
56,20:5
56,21:12
56,23:14
56,24:8
56,25:3
56,26:14
56,27:14
56,28:5
56,29:6
56,30:6
56,31:3
56,32:5
56,34:6
56,35:3
56,39:15
56,44:14
56,45:7
56,46:3
56,47:3
56,48:12
56,50:12
56,54:12
56,55:12
57,1:5
57,3:12
57,4:2
57,5:2
57,7:14
57,8:15
57,9:8
57,10:8
57,11:3
57,12:8
57,13:5
57,14:9
57,15:9
57,16:3
57,17:5
57,18:9
57,19:8
57,20:5
57,21:12
57,23:14
57,24:8
57,25:3
57,26:14
57,27:14
57,28:5
57,29:6
57,30:6
57,31:3
57,32:5
57,34:6
57,35:3
57,39:15
57,44:14
57,45:7
57,46:3
57,47:3
57,48:12
57,50:12
57,54:12
57,55:12
58,1:5
58,3:12
58,4:2
58,5:2
58,7:14
58,8:15
58,9:8
58,10:8
58,11:3
58,12:8
58,13:5
58,14:9
58,15:9
58,16:3
58,17:5
58,18:9
58,19:8
58,20:5
58,21:12
58,23:14
58,24:8
58,25:3
58,26:14
58,27:14
58,28:5
58,29:6
58,30:6
58,31:3
58,32:5
58,34:6
58,35:3
58,39:15
58,44:14
58,45:7
58,46:3
58,47:3
58,48:12
58,50:12
58,54:12
58,55:12

<end>

<optimal SALBP-1 value>
23


<rand seed>
467321153

